c --- [ banner ] -------------------------------------------------------------
c 
c CaDiCaL Radically Simplified CDCL SAT Solver
c Copyright (c) 2016-2021 A. Biere, M. Fleury, N. Froleyks
c 
c Version 1.5.2 9c38a080b32c28d805e8e6ca21849856b0cda605
c g++ (Ubuntu 7.5.0-3ubuntu1~18.04) 7.5.0 -Wall -Wextra -O3 -DNDEBUG
c Wed Feb 16 23:15:36 EST 2022 Linux fac-vanhoeve01 5.4.0-99-generic x86_64
c 
c --- [ parsing input ] ------------------------------------------------------
c 
c reading DIMACS file from '<stdin>' (use '-h' for a list of common options)
c found 'p cnf 2692 7976' header
c parsed 7976 clauses in 0.00 seconds process time
c disconnecting from '<stdin>'
c after reading 106558 bytes 0.1 MB
c 
c --- [ options ] ------------------------------------------------------------
c 
c all options are set to their default value
c 
c --- [ solving ] ------------------------------------------------------------
c 
c time measured in process time since initialization
c 
c  seconds  reductions  redundant irredundant
c         MB    restarts       trail    variables
c          level   conflicts       glue      remaining
c 
c *  0.00  5  0 0   0    0    0  0% 0 7974 2618 97%
c {  0.01  5  0 0   0    0    0  0% 0 7974 2618 97%
c -  0.02  5 70 1  38  301  277 71% 8 7902 2618 97%
c -  0.07  6 40 2 129  902  701 82% 10 7902 2618 97%
c }  0.07  6 39 2 135 1001  793 83% 10 7902 2618 97%
c [  0.07  6  0 2 135 1001  793  0% 0 7902 2618 97%
c O  0.07  6 16 2 135 1002  794 96% 7 7902 2618 97%
c -  0.12  6 22 3 135 1802 1041 93% 16 7902 2618 97%
c ]  0.19  6 19 3 136 3003 1942 93% 14 7902 2618 97%
c {  0.19  6 39 3 136 3003 1942 83% 10 7902 2618 97%
c -  0.20  6 39 4 136 3003 1323 83% 10 7902 2618 97%
c F  0.20  6 39 4 136 3004 1324 83% 10 7902 2618 97%
c s  0.21  6 35 4 139 3214 1509 85% 10 7902 2618 97%
c e  0.23  6 35 4 139 3214   91 85% 10 5685 885 33%
c s  0.24  6 35 4 139 3214   88 85% 10 5685 885 33%
c -  0.29  6 28 5 207 4504 1264 82% 10 5685 885 33%
c 2  0.32  6 27 5 228 5000 1703 83% 10 5685 885 33%
c p  0.32  6 27 5 228 5000 1705 83% 10 5685 885 33%
c #  0.36  6 25 5 276 6005 2625 84% 10 5685 885 33%
c -  0.38  7 24 6 276 6306 2188 84% 10 5685 885 33%
c 
c  seconds  reductions  redundant  irredundant
c         MB    restarts       trail     variables
c          level   conflicts       glue      remaining
c 
c }  0.40  7 24 6 283 7003 2822 85% 10 5685 885 33%
c [  0.40  7 19 6 283 7003 2822 282% 14 5685 885 33%
c -  0.47  6 20 7 284 8406 2721 201% 14 5685 885 33%
c I  0.54  6 21 7 285 10006 4102 165% 15 5685 885 33%
c -  0.59  7 23 8 286 10808 3235 154% 15 5685 885 33%
c -  0.73  7 25 9 288 13508 3518 133% 17 5685 885 33%
c s  0.76  7 25 9 288 13948 3901 130% 17 5685 885 33%
c s  0.77  7 25 9 288 13948 3899 130% 17 5685 885 33%
c ^  0.78  7 25 9 288 13948 3899 130% 17 5685 885 33%
c p  0.84  7 25 9 288 15001 4717 126% 17 5685 885 33%
c ]  0.84  7 25 9 288 15005 4720 126% 17 5685 885 33%
c {  0.84  7 24 9 288 15005 4720 85% 10 5685 885 33%
c B  0.84  7 24 9 288 15007 4722 85% 10 5685 885 33%
c -  0.91  7 23 10 398 16508 4070 84% 10 5685 885 33%
c -  1.06  6 21 11 556 19808 4545 85% 10 5685 885 33%
c W  1.13  6 21 11 609 21009 5651 85% 10 5685 885 33%
c -  1.23  7 21 12 702 23408 5173 84% 10 5685 885 33%
c -  1.42  7 20 13 988 27311 5864 84% 10 5685 885 33%
c F  1.46  7 20 13 1098 28010 6478 84% 10 5685 885 33%
c p  1.56  7 20 13 1285 30003 8360 84% 10 5685 885 33%
c 
c  seconds  reductions     redundant  irredundant
c         MB     restarts         trail     variables
c          level      conflicts       glue      remaining
c 
c s  1.58  7 20 13 1288 30051 8379 84% 10 5685 885 33%
c w  1.59  7 20 13 1288 30051 8377 84% 10 5685 885 33%
c s  1.61  7 20 13 1288 30051 8376 84% 10 5685 885 33%
c ^  1.61  7 20 13 1288 30051 8376 84% 10 5685 885 33%
c }  1.65  7 20 13 1375 31005 9271 84% 10 5685 885 33%
c [  1.65  7 25 13 1375 31005 9271 126% 17 5685 885 33%
c -  1.68  7 25 14 1375 31511 6606 124% 17 5685 885 33%
c -  1.91  7 22 15 1378 36012 6149 113% 16 5685 885 33%
c B  1.91  7 22 15 1378 36013 6150 113% 16 5685 885 33%
c -  2.17  8 25 16 1381 40813 6300 107% 17 5685 885 33%
c W  2.46  8 26 16 1382 45015 9717 104% 19 5685 885 33%
c -  2.52  8 26 17 1382 45913 6648 103% 19 5685 885 33%
c p  2.78  8 26 17 1383 50004 9616 101% 19 5685 885 33%
c -  2.86  7 26 18 1383 51314 6537 100% 19 5685 885 33%
c s  2.88  7 26 18 1383 51519 6674 100% 19 5685 885 33%
c s  2.91  7 26 18 1383 51519 6671 100% 19 5685 885 33%
c ^  2.91  7 26 18 1383 51519 6671 100% 19 5685 885 33%
c O  3.13  7 26 18 1384 55016 9266 99% 19 5685 885 33%
c -  3.23  8 25 19 1386 57018 7258 98% 19 5685 885 33%
c ]  3.56  8 24 19 1390 63005 11533 97% 18 5685 885 33%
c 
c  seconds  reductions      redundant  irredundant
c         MB     restarts          trail     variables
c          level      conflicts        glue      remaining
c 
c {  3.56  8 20 19 1390 63005 11533 84% 10 5685 885 33%
c -  3.56  9 20 20 1394 63019 7044 84% 10 5685 885 33%
c B  3.70  9 20 20 1599 66017 9652 84% 10 5685 885 33%
c -  3.87  9 20 21 1843 69319 8268 84% 10 5685 885 33%
c p  4.15  9 20 21 2087 75005 13490 85% 10 5685 885 33%
c -  4.20  9 20 22 2118 75920 9713 85% 10 5685 885 33%
c W  4.34  9 20 22 2381 78019 11657 85% 10 5685 885 33%
c s  4.38  9 20 22 2401 78355 11946 85% 10 5685 885 33%
c s  4.42  9 20 22 2401 78355 11943 85% 10 5685 885 33%
c ^  4.42  9 20 22 2401 78355 11943 85% 10 5685 885 33%
c -  4.67  8 20 23 2742 82820 11033 84% 10 5685 885 33%
c -  5.05  8 19 24 3066 90020 11072 84% 10 5685 885 33%
c #  5.11  8 19 24 3178 91020 12003 84% 10 5685 885 33%
c -  5.43  8 19 25 3403 97522 11574 80% 10 5685 885 33%
c p  5.84  8 19 25 3827 105007 18307 81% 10 5685 885 33%
c B  5.84  8 19 25 3827 105021 18321 81% 10 5685 885 33%
c -  5.87  9 19 26 3879 105324 12859 81% 10 5685 885 33%
c s  6.18  9 19 26 4314 110557 17684 81% 10 5685 885 33%
c e  6.21  9 19 26 4314 110557 3840 81% 10 8121 567 21%
c s  6.23  9 19 26 4314 110557 3840 81% 10 8121 567 21%
c 
c  seconds  reductions      redundant  irredundant
c         MB     restarts          trail     variables
c          level      conflicts        glue      remaining
c 
c ^  6.23  9 19 26 4314 110557 3840 81% 10 8121 567 21%
c -  6.37  9 19 27 4479 113425 5241 85% 10 8121 567 21%
c W  6.75  9 19 27 5104 120024 11366 84% 10 8121 567 21%
c -  6.86 10 19 28 5278 121825 10608 84% 10 8121 567 21%
c }  7.12 10 19 28 5563 127006 15269 85% 10 8121 567 21%
c [  7.12 10 24 28 5563 127006 15269 151% 18 8121 567 21%
c -  7.30 10 24 29 5563 130526 12431 145% 18 8121 567 21%
c B  7.60 10 23 29 5568 136026 17299 137% 17 8121 567 21%
c -  7.79 10 24 30 5570 139526 12967 133% 18 8121 567 21%
c p  7.83 10 24 30 5570 140007 13379 132% 18 8121 567 21%
c -  8.30  9 24 31 5571 148827 11266 124% 18 8121 567 21%
c W  8.58  9 24 31 5572 153027 14481 121% 18 8121 567 21%
c -  8.91 11 23 32 5572 158428 11790 118% 18 8121 567 21%
c s  9.26 11 23 32 5572 164323 16362 115% 18 8121 567 21%
c w  9.29 11 23 32 5572 164323 16357 115% 18 8121 567 21%
c s  9.31 11 23 32 5572 164323 16357 115% 18 8121 567 21%
c -  9.58 11 23 33 5573 168328 12471 113% 18 8121 567 21%
c I  9.74 11 23 33 5575 171031 14440 112% 18 8121 567 21%
c - 10.20 12 24 34 5579 178528 13270 109% 18 8121 567 21%
c p 10.30 12 23 34 5579 180007 14383 108% 18 8121 567 21%
c 
c  seconds  reductions       redundant   irredundant
c         MB     restarts           trail      variables
c          level      conflicts          glue      remaining
c 
c - 10.96 12 23 35 5586 189029 13339 106% 18 8121 567 21%
c B 11.02 12 23 35 5586 190033 14136 105% 18 8121 567 21%
c - 11.71 11 23 36 5587 199829 14186 103% 18 8121 567 21%
c W 12.51 11 23 36 5594 210035 21918 101% 18 8121 567 21%
c - 12.59 13 23 37 5594 210929 14327 101% 18 8121 567 21%
c - 13.42 13 23 38 5601 222330 13937 99% 18 8121 567 21%
c p 13.60 13 22 38 5601 225010 16048 99% 18 8121 567 21%
c O 14.00 13 22 38 5602 231038 20488 98% 18 8121 567 21%
c - 14.19 13 22 39 5602 234031 14635 98% 18 8121 567 21%
c - 14.95 13 22 40 5603 246032 14458 96% 18 8121 567 21%
c B 15.40 13 22 40 5604 253041 18584 95% 17 8121 567 21%
c ] 15.52 13 22 40 5604 255006 20239 95% 17 8121 567 21%
c { 15.52 13 19 40 5604 255006 20239 85% 10 8121 567 21%
c - 15.72 13 19 41 5872 258333 15580 84% 10 8121 567 21%
c - 16.44 14 19 42 6831 270934 17759 83% 10 8121 567 21%
c p 16.67 14 19 42 6992 275010 21268 82% 10 8121 567 21%
c F 16.73 14 19 42 7058 276045 22245 83% 10 8121 567 21%
c - 17.25 14 19 43 7659 283835 19330 82% 10 8121 567 21%
c - 18.11 14 19 44 8599 297035 20975 82% 10 8121 567 21%
c B 18.29 14 19 44 8872 300046 23688 82% 10 8121 567 21%
c 
c  seconds  reductions       redundant  irredundant
c         MB     restarts           trail     variables
c          level      conflicts         glue      remaining
c 
c - 19.06 12 19 45 9825 310535 22309 83% 10 8121 567 21%
c - 20.04 12 19 46 11044 324336 22403 83% 10 8121 567 21%
c W 20.18 12 19 46 11085 325050 23071 83% 10 8121 567 21%
c p 20.54 12 19 46 11540 330011 27505 82% 10 8121 564 21%
c s 20.60 12 19 46 11540 330011 27415 82% 10 8121 564 21%
c v 20.64 12 19 46 11540 330011 27415 82% 10 8094 564 21%
c w 20.67 12 19 46 11540 330011 27401 82% 10 8094 564 21%
c s 20.73 12 19 46 11540 330011 27397 82% 10 8079 564 21%
c - 21.38 13 19 47 12278 338436 23879 82% 10 8079 564 21%
c # 22.31 13 19 47 13297 351051 35166 83% 10 8079 564 21%
c - 22.48 13 19 48 13468 352837 24040 83% 10 8079 564 21%
c - 23.47 13 19 49 14321 367538 24827 83% 10 8079 564 21%
c B 24.26 13 19 49 15382 378053 34443 83% 10 8079 564 21%
c - 24.61 13 19 50 15724 382539 25602 83% 10 8079 564 21%
c p 25.16 13 19 50 16320 390012 32330 83% 10 8079 564 21%
c - 25.71 13 18 51 16611 397840 25449 82% 10 8079 564 21%
c s 25.83 13 18 51 16652 399139 26591 82% 10 8079 564 21%
c w 25.87 13 18 51 16652 399139 26584 82% 10 8079 564 21%
c s 25.92 13 18 51 16652 399139 26580 82% 10 8079 564 21%
c W 26.56 13 18 51 17192 406055 32904 82% 10 8079 564 21%
c 
c  seconds  reductions        redundant  irredundant
c         MB      restarts           trail     variables
c          level       conflicts         glue      remaining
c 
c - 27.13 15 18 52 17783 413447 27320 82% 10 8079 564 21%
c - 28.25 15 18 53 18879 429349 26939 82% 10 8079 564 21%
c F 28.57 15 18 53 19038 435057 31861 81% 10 8079 564 21%
c - 29.39 17 18 54 19811 445550 28013 81% 10 8079 564 21%
c p 30.06 17 18 54 20411 455012 36441 81% 10 8079 564 21%
c - 30.65 17 18 55 20946 462053 29113 82% 10 8079 564 21%
c B 30.84 17 18 55 21095 465058 31738 81% 10 8079 564 21%
c - 31.91 17 18 56 21886 478853 29735 82% 10 8079 564 21%
c - 33.12 19 18 57 22768 495954 30815 81% 10 8079 564 21%
c W 33.27 19 18 57 22792 496060 30916 81% 10 8079 564 21%
c } 34.32 13 18 57 23693 511008 43783 80% 10 8079 564 21%
c [ 34.32 13 22 57 23693 511008 43783 95% 17 8079 564 21%
c - 34.48 14 22 58 23693 513357 30937 95% 17 8079 564 21%
c p 35.23 14 22 58 23693 525012 41271 94% 17 8079 564 21%
c W 35.63 14 23 58 23693 528061 44122 94% 17 8079 564 21%
c - 35.86 14 24 59 23693 531059 31379 94% 18 8079 564 21%
c - 37.24 15 26 60 23700 549059 28908 92% 19 8079 564 21%
c I 38.17 15 26 60 23706 561062 38041 91% 19 8079 564 21%
c - 38.68 14 26 61 23708 567360 27968 91% 19 8079 564 21%
c - 40.32 18 26 62 23715 585960 29155 91% 19 8079 564 21%
c 
c  seconds  reductions        redundant  irredundant
c         MB      restarts           trail     variables
c          level       conflicts         glue      remaining
c 
c B 41.08 18 26 62 23722 595063 37118 90% 19 8079 564 21%
c p 41.43 18 27 62 23723 600012 41652 90% 19 8079 564 21%
c - 41.79 17 27 63 23723 604861 29385 90% 19 8079 564 21%
c - 43.30 18 28 64 23725 624062 28560 89% 20 8079 564 21%
c W 43.91 18 28 64 23730 630064 32813 89% 20 8079 564 21%
c - 45.03 18 27 65 23737 643562 26731 88% 20 8079 564 21%
c - 46.51 18 27 66 23745 663363 26733 88% 20 8079 564 21%
c O 46.72 18 27 66 23746 666065 28683 88% 20 8079 564 21%
c p 47.85 18 27 66 23753 680014 38375 88% 20 8079 564 21%
c - 48.16 18 27 67 23754 683464 27759 88% 20 8079 564 21%
c B 49.79 18 27 67 23755 703066 43950 88% 21 8079 564 21%
c - 49.88 20 27 68 23755 703864 30519 87% 21 8079 564 21%
c - 51.72 20 28 69 23756 724564 31289 87% 21 8079 564 21%
c W 53.44 20 29 69 23757 741067 44733 87% 21 8079 564 21%
c - 53.98 20 29 70 23757 745564 31741 87% 22 8079 564 21%
c p 55.69 20 29 70 23757 765015 46635 86% 22 8079 564 21%
c - 55.93 20 29 71 23757 766864 31812 86% 22 8079 564 21%
c I 57.07 20 29 71 23757 780068 42853 86% 22 8079 564 21%
c - 57.78 20 29 72 23757 788464 34954 87% 21 8079 564 21%
c s 57.85 20 29 72 23757 788464 34802 87% 21 8079 564 21%
c 
c  seconds  reductions        redundant  irredundant
c         MB      restarts           trail     variables
c          level       conflicts         glue      remaining
c 
c w 57.97 20 29 72 23757 788464 34762 87% 21 8079 564 21%
c - 59.92 23 29 73 23761 810366 35121 87% 21 8079 564 21%
c B 60.97 23 28 73 23766 820071 42623 87% 20 8079 564 21%
c - 62.43 23 27 74 23772 832568 34842 87% 20 8079 564 21%
c p 64.38 23 25 74 23782 855016 49538 87% 19 8079 564 21%
c - 64.43 23 25 75 23782 855071 30156 87% 19 8079 564 21%
c W 65.08 23 25 75 23786 861073 34588 87% 19 8079 564 21%
c - 66.47 23 26 76 23788 877873 33677 88% 19 8079 564 21%
c - 68.71 23 27 77 23795 900973 35610 88% 20 8079 564 21%
c O 68.90 23 27 77 23797 903074 37361 88% 20 8079 564 21%
c - 70.70 23 26 78 23806 924373 33012 88% 19 8079 564 21%
c B 72.64 23 26 78 23817 946075 49785 88% 19 8079 564 21%
c - 72.84 23 26 79 23818 948075 34222 88% 19 8079 564 21%
c p 73.00 23 26 79 23818 950016 35877 88% 19 8079 564 21%
c - 74.82 23 26 80 23820 972076 33978 88% 20 8079 564 21%
c W 76.64 23 26 80 23820 990079 48083 88% 20 8079 564 21%
c - 77.29 23 26 81 23820 996377 35049 88% 20 8079 564 21%
c - 79.61 23 25 82 23830 1020981 34655 88% 19 8079 564 21%
c ] 79.77 23 25 82 23832 1023008 36061 88% 19 8079 564 21%
c { 79.77 23 18 82 23832 1023008 36061 80% 10 8079 564 21%
c 
c  seconds  reductions         redundant  irredundant
c         MB      restarts            trail     variables
c          level        conflicts         glue      remaining
c 
c # 80.65 23 18 82 24606 1035081 46948 81% 10 8079 564 21%
c - 81.61 23 18 83 25471 1045881 38542 81% 10 8079 564 21%
c p 81.98 23 18 83 25799 1050020 42275 81% 10 8079 562 21%
c s 82.21 23 18 83 25799 1050020 41986 81% 10 8069 562 21%
c - 84.18 23 18 84 27398 1071081 44185 80% 10 8069 562 21%
c B 85.05 23 18 84 28085 1081082 52898 80% 10 8069 562 21%
c - 86.79 23 18 85 29636 1096581 45040 81% 10 8069 562 21%
c - 89.58 25 18 86 31759 1122381 46062 81% 10 8069 562 21%
c W 90.41 25 18 86 32338 1128087 51325 82% 10 8069 562 21%
c s 91.15 25 18 86 32758 1134583 57200 82% 10 8053 562 21%
c w 91.29 25 18 86 32758 1134583 57194 82% 10 8053 562 21%
c s 91.47 25 18 86 32758 1134583 57158 82% 10 8053 562 21%
c - 93.15 25 18 87 34003 1148483 48519 82% 10 8053 562 21%
c p 93.82 25 18 87 34516 1155020 54355 82% 10 8053 562 21%
c - 95.71 18 18 88 35326 1174883 47095 81% 10 8053 562 21%
c F 95.84 18 18 88 35442 1176088 48178 81% 10 8053 562 21%
c - 98.35 22 18 89 37247 1201583 48145 81% 10 8053 562 21%
c B 100.57 22 17 89 38706 1225091 68374 80% 10 8053 562 21%
c - 100.92 22 17 90 38886 1228584 48392 80% 10 8053 562 21%
c - 103.32 22 17 91 40164 1255884 48966 79% 10 8053 562 21%
c 
c  seconds   reductions         redundant  irredundant
c          MB      restarts            trail     variables
c           level        conflicts         glue      remaining
c 
c p 104.13 22 17 91 40519 1265020 56384 79% 10 8053 562 21%
c W 105.47 22 17 91 41230 1275092 65562 80% 10 8053 562 21%
c - 106.50 26 17 92 41909 1283485 51314 80% 10 8053 562 21%
c - 109.69 22 17 93 44322 1311385 52636 80% 10 8053 562 21%
c # 110.98 22 17 93 44939 1326094 64963 81% 10 8053 562 21%
c - 112.76 25 17 94 46172 1339585 52860 81% 10 8053 562 21%
c - 116.01 22 17 95 48412 1368085 53976 81% 10 8053 562 21%
c B 116.96 22 17 95 48934 1378097 62269 81% 10 8053 562 21%
c p 117.29 22 17 95 49145 1380020 64124 81% 10 8053 560 21%
c s 117.46 22 17 95 49145 1380020 64010 81% 10 8053 560 21%
c v 117.51 22 17 95 49145 1380020 64010 81% 10 8031 560 21%
c w 117.61 22 17 95 49145 1380020 63988 81% 10 8031 560 21%
c s 117.79 22 17 95 49145 1380020 63976 81% 10 8021 560 21%
c - 119.92 22 17 96 50418 1396885 55153 82% 10 8021 560 21%
c - 122.98 22 17 97 51975 1425989 55959 82% 10 8021 560 21%
c W 123.77 22 17 97 52186 1431101 60377 82% 10 8021 560 21%
c - 126.59 22 17 98 53897 1455389 56770 82% 10 8021 560 21%
c s 129.35 22 17 98 55365 1479870 77727 83% 10 8021 560 21%
c w 129.49 22 17 98 55365 1479870 77725 83% 10 8021 560 21%
c s 129.69 22 17 98 55365 1479870 77720 83% 10 8021 560 21%
c 
c  seconds   reductions         redundant  irredundant
c          MB      restarts            trail     variables
c           level        conflicts         glue      remaining
c 
c - 130.20 22 17 99 55419 1485089 56595 83% 10 8021 560 21%
c F 130.21 22 17 99 55419 1485106 56610 83% 10 8021 560 21%
c p 131.58 22 17 99 56088 1500021 69179 83% 10 8021 560 21%
c - 133.53 26 17 100 57140 1515090 57013 83% 10 8021 560 21%
c B 135.96 26 17 100 58395 1540107 77656 82% 10 8021 560 21%
c - 136.66 26 17 101 58721 1545390 57101 82% 10 8021 560 21%
c - 139.75 26 16 102 60101 1575990 58105 82% 10 8021 560 21%
c W 142.34 26 16 102 61419 1596108 75217 82% 10 8021 560 21%
c - 143.72 30 16 103 62141 1606894 59232 82% 10 8021 560 21%
c p 145.95 30 17 103 63577 1625021 75644 82% 10 8021 560 21%
c - 147.32 26 17 104 64055 1638096 61214 82% 10 8021 560 21%
c # 148.74 26 16 104 64734 1653114 73746 83% 10 8021 560 21%
c - 150.88 30 16 105 65869 1669596 61360 82% 10 8021 560 21%
c - 154.87 26 17 106 68394 1701396 63126 82% 10 8021 560 21%
c B 155.97 26 17 106 69085 1711118 71809 82% 10 8021 560 21%
c - 158.98 30 17 107 70650 1733496 65393 82% 10 8021 560 21%
c p 161.61 30 17 107 72184 1755025 84140 82% 10 8021 560 21%
c - 163.12 26 17 108 72776 1765898 65108 82% 10 8021 560 21%
c } 163.67 26 17 108 72845 1770121 68489 82% 10 8021 560 21%
c 1 163.67 26 17 108 72845 1770121 68489 82% 10 8021 560 21%
c 
c --- [ result ] -------------------------------------------------------------
c 
s SATISFIABLE
v -1 -2 -3 -4 -5 -6 -7 -8 -9 -10 -11 -12 -13 -14 -15 16 -17 -18 -19 -20 21 -22
v -23 24 -25 -26 -27 -28 -29 -30 -31 -32 -33 -34 -35 36 -37 -38 -39 -40 -41
v -42 -43 -44 -45 -46 47 -48 -49 -50 -51 -52 -53 -54 -55 56 -57 -58 -59 -60
v -61 -62 -63 -64 -65 -66 -67 -68 69 70 71 72 73 -74 -75 -76 77 -78 -79 -80
v -81 -82 -83 -84 85 -86 -87 -88 -89 -90 -91 -92 -93 -94 -95 96 97 -98 -99 100
v -101 -102 103 -104 -105 -106 -107 -108 -109 -110 111 -112 -113 -114 -115
v -116 -117 -118 -119 -120 -121 -122 -123 -124 -125 -126 -127 -128 -129 -130
v 131 -132 -133 -134 -135 -136 137 -138 -139 140 141 -142 -143 -144 -145 -146
v -147 148 -149 -150 -151 -152 153 -154 -155 -156 -157 158 -159 -160 161 162
v -163 -164 -165 -166 167 168 -169 -170 -171 -172 173 -174 175 -176 177 -178
v 179 -180 -181 -182 183 -184 -185 -186 -187 -188 -189 -190 -191 -192 -193
v -194 -195 -196 -197 198 -199 -200 201 -202 -203 -204 -205 -206 -207 -208
v -209 210 -211 -212 -213 -214 -215 -216 -217 -218 -219 -220 -221 -222 -223
v -224 225 -226 -227 -228 -229 -230 231 232 233 234 -235 -236 -237 -238 -239
v 240 -241 -242 -243 -244 -245 -246 -247 -248 -249 -250 251 -252 253 254 255
v 256 -257 -258 259 -260 261 262 263 -264 -265 266 267 -268 269 -270 -271 272
v 273 -274 275 -276 -277 -278 -279 -280 -281 282 283 -284 -285 -286 -287 288
v -289 -290 -291 292 -293 -294 -295 296 -297 -298 -299 -300 -301 -302 303 304
v -305 306 -307 -308 309 310 -311 312 -313 314 -315 316 317 -318 -319 -320 321
v -322 323 -324 325 326 327 328 329 330 331 332 333 334 335 336 337 338 339
v 340 341 342 343 344 345 346 347 348 349 350 351 352 353 354 355 356 357 358
v 359 360 361 362 363 364 365 366 367 368 369 370 371 372 373 374 375 376 377
v 378 379 380 381 382 383 384 385 386 387 388 389 390 391 392 393 394 395 396
v 397 398 -399 -400 401 402 403 404 405 406 407 408 409 410 411 412 413 414
v 415 416 417 418 419 420 421 422 423 424 425 426 427 428 429 430 431 432 433
v 434 435 436 437 438 439 440 441 442 443 444 445 446 447 448 449 450 451 452
v 453 454 455 456 457 458 459 460 461 462 463 464 465 466 467 468 469 470 471
v 472 -473 -474 -475 476 477 478 479 480 481 482 483 484 485 486 487 488 489
v 490 491 492 493 494 495 496 497 498 499 500 501 502 503 504 505 506 507 508
v 509 510 511 512 513 514 515 516 517 518 519 520 521 522 523 524 525 526 527
v 528 529 530 531 532 533 534 535 536 537 538 539 540 541 542 543 544 545 546
v -547 -548 -549 -550 551 552 553 554 555 556 557 558 559 560 561 562 563 564
v 565 566 567 568 569 570 571 572 573 574 575 576 577 578 579 580 581 582 583
v 584 585 586 587 588 589 590 591 592 593 594 595 596 597 598 599 600 601 602
v 603 604 605 606 607 608 609 610 611 612 613 614 615 616 617 618 619 620 -621
v -622 -623 -624 -625 626 627 628 629 630 631 632 633 634 635 636 637 638 639
v 640 641 642 643 644 645 646 647 648 649 650 651 652 653 654 655 656 657 658
v 659 660 661 662 663 664 665 666 667 668 669 670 671 672 673 674 675 676 677
v 678 679 680 681 682 683 684 685 686 687 688 689 690 691 692 693 694 -695
v -696 -697 -698 -699 -700 -701 -702 703 704 705 706 707 708 709 710 711 712
v 713 714 715 716 717 718 719 720 721 722 723 724 725 726 727 728 729 730 731
v 732 733 734 735 736 737 738 739 740 741 742 743 744 745 746 747 748 749 750
v 751 752 753 754 755 756 757 758 759 760 761 762 763 764 765 766 767 768 -769
v -770 -771 -772 -773 -774 -775 -776 -777 -778 779 780 781 782 783 784 785 786
v 787 788 789 790 791 792 793 794 795 796 797 798 799 800 801 802 803 804 805
v 806 807 808 809 810 811 812 813 814 815 816 817 818 819 820 821 822 823 824
v 825 826 827 828 829 830 831 832 833 834 835 836 837 838 839 840 841 842 -843
v -844 -845 -846 -847 -848 -849 -850 -851 -852 -853 854 855 856 857 858 859
v 860 861 862 863 864 865 866 867 868 869 870 871 872 873 874 875 876 877 878
v 879 880 881 882 883 884 885 886 887 888 889 890 891 892 893 894 895 896 897
v 898 899 900 901 902 903 904 905 906 907 908 909 910 911 912 913 914 915 916
v -917 -918 -919 -920 -921 -922 -923 -924 -925 -926 -927 -928 929 930 931 932
v 933 934 935 936 937 938 939 940 941 942 943 944 945 946 947 948 949 950 951
v 952 953 954 955 956 957 958 959 960 961 962 963 964 965 966 967 968 969 970
v 971 972 973 974 975 976 977 978 979 980 981 982 983 984 985 986 987 988 989
v 990 -991 -992 -993 -994 -995 -996 -997 -998 -999 -1000 -1001 -1002 -1003
v -1004 -1005 1006 1007 1008 1009 1010 1011 1012 1013 1014 1015 1016 1017 1018
v 1019 1020 1021 1022 1023 1024 1025 1026 1027 1028 1029 1030 1031 1032 1033
v 1034 1035 1036 1037 1038 1039 1040 1041 1042 1043 1044 1045 1046 1047 1048
v 1049 1050 1051 1052 1053 1054 1055 1056 1057 1058 1059 1060 1061 1062 1063
v 1064 -1065 -1066 -1067 -1068 -1069 -1070 -1071 -1072 -1073 -1074 -1075 -1076
v -1077 -1078 -1079 -1080 1081 1082 1083 1084 1085 1086 1087 1088 1089 1090
v 1091 1092 1093 1094 1095 1096 1097 1098 1099 1100 1101 1102 1103 1104 1105
v 1106 1107 1108 1109 1110 1111 1112 1113 1114 1115 1116 1117 1118 1119 1120
v 1121 1122 1123 1124 1125 1126 1127 1128 1129 1130 1131 1132 1133 1134 1135
v 1136 1137 1138 -1139 -1140 -1141 -1142 -1143 -1144 -1145 -1146 -1147 -1148
v -1149 -1150 -1151 -1152 -1153 -1154 -1155 -1156 1157 1158 1159 1160 1161
v 1162 1163 1164 1165 1166 1167 1168 1169 1170 1171 1172 1173 1174 1175 1176
v 1177 1178 1179 1180 1181 1182 1183 1184 1185 1186 1187 1188 1189 1190 1191
v 1192 1193 1194 1195 1196 1197 1198 1199 1200 1201 1202 1203 1204 1205 1206
v 1207 1208 1209 1210 1211 1212 -1213 -1214 -1215 -1216 -1217 -1218 -1219
v -1220 -1221 -1222 -1223 -1224 -1225 -1226 -1227 -1228 -1229 -1230 -1231
v -1232 -1233 1234 1235 1236 1237 1238 1239 1240 1241 1242 1243 1244 1245 1246
v 1247 1248 1249 1250 1251 1252 1253 1254 1255 1256 1257 1258 1259 1260 1261
v 1262 1263 1264 1265 1266 1267 1268 1269 1270 1271 1272 1273 1274 1275 1276
v 1277 1278 1279 1280 1281 1282 1283 1284 1285 1286 -1287 -1288 -1289 -1290
v -1291 -1292 -1293 -1294 -1295 -1296 -1297 -1298 -1299 -1300 -1301 -1302
v -1303 -1304 -1305 -1306 -1307 -1308 1309 1310 1311 1312 1313 1314 1315 1316
v 1317 1318 1319 1320 1321 1322 1323 1324 1325 1326 1327 1328 1329 1330 1331
v 1332 1333 1334 1335 1336 1337 1338 1339 1340 1341 1342 1343 1344 1345 1346
v 1347 1348 1349 1350 1351 1352 1353 1354 1355 1356 1357 1358 1359 1360 -1361
v -1362 -1363 -1364 -1365 -1366 -1367 -1368 -1369 -1370 -1371 -1372 -1373
v -1374 -1375 -1376 -1377 -1378 -1379 -1380 -1381 -1382 -1383 -1384 1385 1386
v 1387 1388 1389 1390 1391 1392 1393 1394 1395 1396 1397 1398 1399 1400 1401
v 1402 1403 1404 1405 1406 1407 1408 1409 1410 1411 1412 1413 1414 1415 1416
v 1417 1418 1419 1420 1421 1422 1423 1424 1425 1426 1427 1428 1429 1430 1431
v 1432 1433 1434 -1435 -1436 -1437 -1438 -1439 -1440 -1441 -1442 -1443 -1444
v -1445 -1446 -1447 -1448 -1449 -1450 -1451 -1452 -1453 -1454 -1455 -1456
v -1457 -1458 -1459 -1460 -1461 -1462 -1463 -1464 -1465 1466 1467 1468 1469
v 1470 1471 1472 1473 1474 1475 1476 1477 1478 1479 1480 1481 1482 1483 1484
v 1485 1486 1487 1488 1489 1490 1491 1492 1493 1494 1495 1496 1497 1498 1499
v 1500 1501 1502 1503 1504 1505 1506 1507 1508 -1509 -1510 -1511 -1512 -1513
v -1514 -1515 -1516 -1517 -1518 -1519 -1520 -1521 -1522 -1523 -1524 -1525
v -1526 -1527 -1528 -1529 -1530 -1531 -1532 -1533 -1534 -1535 -1536 -1537
v -1538 -1539 -1540 1541 1542 1543 1544 1545 1546 1547 1548 1549 1550 1551
v 1552 1553 1554 1555 1556 1557 1558 1559 1560 1561 1562 1563 1564 1565 1566
v 1567 1568 1569 1570 1571 1572 1573 1574 1575 1576 1577 1578 1579 1580 1581
v 1582 -1583 -1584 -1585 -1586 -1587 -1588 -1589 -1590 -1591 -1592 -1593 -1594
v -1595 -1596 -1597 -1598 -1599 -1600 -1601 -1602 -1603 -1604 -1605 -1606
v -1607 -1608 -1609 -1610 -1611 -1612 -1613 -1614 -1615 -1616 -1617 -1618
v -1619 1620 1621 1622 1623 1624 1625 1626 1627 1628 1629 1630 1631 1632 1633
v 1634 1635 1636 1637 1638 1639 1640 1641 1642 1643 1644 1645 1646 1647 1648
v 1649 1650 1651 1652 1653 1654 1655 1656 -1657 -1658 -1659 -1660 -1661 -1662
v -1663 -1664 -1665 -1666 -1667 -1668 -1669 -1670 -1671 -1672 -1673 -1674
v -1675 -1676 -1677 -1678 -1679 -1680 -1681 -1682 -1683 -1684 -1685 -1686
v -1687 -1688 -1689 -1690 -1691 -1692 -1693 -1694 -1695 -1696 -1697 1698 1699
v 1700 1701 1702 1703 1704 1705 1706 1707 1708 1709 1710 1711 1712 1713 1714
v 1715 1716 1717 1718 1719 1720 1721 1722 1723 1724 1725 1726 1727 1728 1729
v 1730 -1731 -1732 -1733 -1734 -1735 -1736 -1737 -1738 -1739 -1740 -1741 -1742
v -1743 -1744 -1745 -1746 -1747 -1748 -1749 -1750 -1751 -1752 -1753 -1754
v -1755 -1756 -1757 -1758 -1759 -1760 -1761 -1762 -1763 -1764 -1765 -1766
v -1767 -1768 -1769 -1770 -1771 -1772 -1773 -1774 -1775 1776 1777 1778 1779
v 1780 1781 1782 1783 1784 1785 1786 1787 1788 1789 1790 1791 1792 1793 1794
v 1795 1796 1797 1798 1799 1800 1801 1802 1803 1804 -1805 -1806 -1807 -1808
v -1809 -1810 -1811 -1812 -1813 -1814 -1815 -1816 -1817 -1818 -1819 -1820
v -1821 -1822 -1823 -1824 -1825 -1826 -1827 -1828 -1829 -1830 -1831 -1832
v -1833 -1834 -1835 -1836 -1837 -1838 -1839 -1840 -1841 -1842 -1843 -1844
v -1845 -1846 -1847 -1848 -1849 -1850 -1851 -1852 -1853 -1854 -1855 -1856 1857
v 1858 1859 1860 1861 1862 1863 1864 1865 1866 1867 1868 1869 1870 1871 1872
v 1873 1874 1875 1876 1877 1878 -1879 -1880 -1881 -1882 -1883 -1884 -1885
v -1886 -1887 -1888 -1889 -1890 -1891 -1892 -1893 -1894 -1895 -1896 -1897
v -1898 -1899 -1900 -1901 -1902 -1903 -1904 -1905 -1906 -1907 -1908 -1909
v -1910 -1911 -1912 -1913 -1914 -1915 -1916 -1917 -1918 -1919 -1920 -1921
v -1922 -1923 -1924 -1925 -1926 -1927 -1928 -1929 -1930 -1931 1932 1933 1934
v 1935 1936 1937 1938 1939 1940 1941 1942 1943 1944 1945 1946 1947 1948 1949
v 1950 1951 1952 -1953 -1954 -1955 -1956 -1957 -1958 -1959 -1960 -1961 -1962
v -1963 -1964 -1965 -1966 -1967 -1968 -1969 -1970 -1971 -1972 -1973 -1974
v -1975 -1976 -1977 -1978 -1979 -1980 -1981 -1982 -1983 -1984 -1985 -1986
v -1987 -1988 -1989 -1990 -1991 -1992 -1993 -1994 -1995 -1996 -1997 -1998
v -1999 -2000 -2001 -2002 -2003 -2004 -2005 -2006 -2007 2008 2009 2010 2011
v 2012 2013 2014 2015 2016 2017 2018 2019 2020 2021 2022 2023 2024 2025 2026
v -2027 -2028 -2029 -2030 -2031 -2032 -2033 -2034 -2035 -2036 -2037 -2038
v -2039 -2040 -2041 -2042 -2043 -2044 -2045 -2046 -2047 -2048 -2049 -2050
v -2051 -2052 -2053 -2054 -2055 -2056 -2057 -2058 -2059 -2060 -2061 -2062
v -2063 -2064 -2065 -2066 -2067 -2068 -2069 -2070 -2071 -2072 -2073 -2074
v -2075 -2076 -2077 -2078 -2079 -2080 -2081 -2082 -2083 -2084 2085 2086 2087
v 2088 2089 2090 2091 2092 2093 2094 2095 2096 2097 2098 2099 2100 -2101 -2102
v -2103 -2104 -2105 -2106 -2107 -2108 -2109 -2110 -2111 -2112 -2113 -2114
v -2115 -2116 -2117 -2118 -2119 -2120 -2121 -2122 -2123 -2124 -2125 -2126
v -2127 -2128 -2129 -2130 -2131 -2132 -2133 -2134 -2135 -2136 -2137 -2138
v -2139 -2140 -2141 -2142 -2143 -2144 -2145 -2146 -2147 -2148 -2149 -2150
v -2151 -2152 -2153 -2154 -2155 -2156 -2157 -2158 -2159 2160 2161 2162 2163
v 2164 2165 2166 2167 2168 2169 2170 2171 2172 2173 2174 -2175 -2176 -2177
v -2178 -2179 -2180 -2181 -2182 -2183 -2184 -2185 -2186 -2187 -2188 -2189
v -2190 -2191 -2192 -2193 -2194 -2195 -2196 -2197 -2198 -2199 -2200 -2201
v -2202 -2203 -2204 -2205 -2206 -2207 -2208 -2209 -2210 -2211 -2212 -2213
v -2214 -2215 -2216 -2217 -2218 -2219 -2220 -2221 -2222 -2223 -2224 -2225
v -2226 -2227 -2228 -2229 -2230 -2231 -2232 -2233 -2234 -2235 2236 2237 2238
v 2239 2240 2241 2242 2243 2244 2245 2246 2247 2248 -2249 -2250 -2251 -2252
v -2253 -2254 -2255 -2256 -2257 -2258 -2259 -2260 -2261 -2262 -2263 -2264
v -2265 -2266 -2267 -2268 -2269 -2270 -2271 -2272 -2273 -2274 -2275 -2276
v -2277 -2278 -2279 -2280 -2281 -2282 -2283 -2284 -2285 -2286 -2287 -2288
v -2289 -2290 -2291 -2292 -2293 -2294 -2295 -2296 -2297 -2298 -2299 -2300
v -2301 -2302 -2303 -2304 -2305 -2306 -2307 -2308 -2309 -2310 -2311 2312 2313
v 2314 2315 2316 2317 2318 2319 2320 2321 2322 -2323 -2324 -2325 -2326 -2327
v -2328 -2329 -2330 -2331 -2332 -2333 -2334 -2335 -2336 -2337 -2338 -2339
v -2340 -2341 -2342 -2343 -2344 -2345 -2346 -2347 -2348 -2349 -2350 -2351
v -2352 -2353 -2354 -2355 -2356 -2357 -2358 -2359 -2360 -2361 -2362 -2363
v -2364 -2365 -2366 -2367 -2368 -2369 -2370 -2371 -2372 -2373 -2374 -2375
v -2376 -2377 -2378 -2379 -2380 -2381 -2382 -2383 -2384 -2385 -2386 -2387 2388
v 2389 2390 2391 2392 2393 2394 2395 2396 -2397 -2398 -2399 -2400 -2401 -2402
v -2403 -2404 -2405 -2406 -2407 -2408 -2409 -2410 -2411 -2412 -2413 -2414
v -2415 -2416 -2417 -2418 -2419 -2420 -2421 -2422 -2423 -2424 -2425 -2426
v -2427 -2428 -2429 -2430 -2431 -2432 -2433 -2434 -2435 -2436 -2437 -2438
v -2439 -2440 -2441 -2442 -2443 -2444 -2445 -2446 -2447 -2448 -2449 -2450
v -2451 -2452 -2453 -2454 -2455 -2456 -2457 -2458 -2459 -2460 -2461 -2462 2463
v 2464 2465 2466 2467 2468 2469 2470 -2471 -2472 -2473 -2474 -2475 -2476 -2477
v -2478 -2479 -2480 -2481 -2482 -2483 -2484 -2485 -2486 -2487 -2488 -2489
v -2490 -2491 -2492 -2493 -2494 -2495 -2496 -2497 -2498 -2499 -2500 -2501
v -2502 -2503 -2504 -2505 -2506 -2507 -2508 -2509 -2510 -2511 -2512 -2513
v -2514 -2515 -2516 -2517 -2518 -2519 -2520 -2521 -2522 -2523 -2524 -2525
v -2526 -2527 -2528 -2529 -2530 -2531 -2532 -2533 -2534 -2535 -2536 -2537
v -2538 -2539 -2540 2541 2542 2543 2544 -2545 -2546 -2547 -2548 -2549 -2550
v -2551 -2552 -2553 -2554 -2555 -2556 -2557 -2558 -2559 -2560 -2561 -2562
v -2563 -2564 -2565 -2566 -2567 -2568 -2569 -2570 -2571 -2572 -2573 -2574
v -2575 -2576 -2577 -2578 -2579 -2580 -2581 -2582 -2583 -2584 -2585 -2586
v -2587 -2588 -2589 -2590 -2591 -2592 -2593 -2594 -2595 -2596 -2597 -2598
v -2599 -2600 -2601 -2602 -2603 -2604 -2605 -2606 -2607 -2608 -2609 -2610
v -2611 -2612 -2613 -2614 -2615 -2616 2617 2618 -2619 -2620 -2621 -2622 -2623
v -2624 -2625 -2626 -2627 -2628 -2629 -2630 -2631 -2632 -2633 -2634 -2635
v -2636 -2637 -2638 -2639 -2640 -2641 -2642 -2643 -2644 -2645 -2646 -2647
v -2648 -2649 -2650 -2651 -2652 -2653 -2654 -2655 -2656 -2657 -2658 -2659
v -2660 -2661 -2662 -2663 -2664 -2665 -2666 -2667 -2668 -2669 -2670 -2671
v -2672 -2673 -2674 -2675 -2676 -2677 -2678 -2679 -2680 -2681 -2682 -2683
v -2684 -2685 -2686 -2687 -2688 -2689 -2690 -2691 -2692 0
c 
c --- [ run-time profiling ] -------------------------------------------------
c 
c process time taken by individual solving procedures
c (percentage relative to process time for solving)
c 
c       160.35   97.98% search
c       102.51   62.64% unstable
c        54.57   33.34% stable
c         3.31    2.02% simplify
c         3.26    1.99% walk
c         1.68    1.03% subsume
c         0.70    0.43% vivify
c         0.40    0.24% probe
c         0.15    0.09% ternary
c         0.10    0.06% elim
c         0.00    0.00% parse
c         0.00    0.00% lucky
c   =================================
c       163.66  100.00% solve
c 
c last line shows process time for solving
c (percentage relative to total process time)
c 
c --- [ statistics ] ---------------------------------------------------------
c 
c chronological:            347994        19.66 %  of conflicts
c conflicts:               1770121     10815.54    per second
c decisions:               3221532     19683.75    per second
c eliminated:                 2051        76.19 %  of all variables
c fixed:                        81         3.01 %  of all variables
c learned:                 1736923        98.12 %  per conflict
c learned_lits:           65847993       100.00 %  learned literals
c minimized:                     0         0.00 %  learned literals
c shrunken:               22145811        33.63 %  learned literals
c minishrunken:            6250537         9.49 %  learned literals
c propagations:          146555661         0.90 M  per second
c reduced:                 1407871        79.54 %  per conflict
c rephased:                     59     30002.05    interval
c restarts:                  72845        24.30    interval
c stabilizing:                   5        38.53 %  of conflicts
c subsumed:                 245268         6.99 %  of all clauses
c strengthened:              18032         0.51 %  of all clauses
c ternary:                      33         0.05 %  of resolved
c vivified:                    190         0.01 %  of all clauses
c walked:                       19     93164.26    interval
c weakened:                   8774         2.90    average size
c 
c seconds are measured in process time for solving
c 
c --- [ resources ] ----------------------------------------------------------
c 
c total process time since initialization:       163.67    seconds
c total real time since initialization:          163.70    seconds
c maximum resident set size of process:           30.46    MB
c 
c --- [ shutting down ] ------------------------------------------------------
c 
c exit 10
